
Gurobi 7.5.1 (mac64, Python) logging started Tue Jan 23 20:58:36 2018

Academic license - for non-commercial use only

Gurobi 7.5.1 (mac64, Python) logging started Wed Jan 24 13:57:41 2018

Academic license - for non-commercial use only

Gurobi 7.5.1 (mac64, Python) logging started Wed Jan 24 14:00:44 2018

Academic license - for non-commercial use only
